
Gurobi 11.0.3 (linux64) logging started Mon Aug 25 12:53:39 2025

Set parameter LogFile to value "/home/yihong/Coding/OR_SUC/SUC_epstheta_results_bigM100000_thread4/case24_ieee_rts_theta0.1_epsilon0.2_gurobi_seed40000_num_gen100_N_WDR50_load_scaling_factor1_ori_eps_T1quadra_cost_bc1.03.txt"
Set parameter TimeLimit to value 3600
Gurobi Optimizer version 11.0.3 build v11.0.3rc0 (linux64 - "Ubuntu 20.04.6 LTS")

CPU model: AMD EPYC 7532 32-Core Processor, instruction set [SSE2|AVX|AVX2]
Thread count: 64 physical cores, 128 logical processors, using up to 4 threads

Academic license 2399124 - for non-commercial use only - registered to yi___@ed.ac.uk
Optimize a model with 2261 rows, 1291 columns and 95366 nonzeros
Model fingerprint: 0x977666bf
Model has 100 quadratic constraints
Variable types: 1191 continuous, 100 integer (100 binary)
Coefficient statistics:
  Matrix range     [3e-04, 6e+01]
  QMatrix range    [2e-03, 8e-03]
  QLMatrix range   [5e-01, 6e+01]
  Objective range  [1e+00, 1e+00]
  Bounds range     [1e+00, 1e+00]
  RHS range        [1e+00, 9e+03]
Presolve removed 1960 rows and 718 columns
Presolve time: 0.02s
Presolved: 301 rows, 573 columns, 2451 nonzeros
Presolved model has 100 quadratic constraint(s)
Variable types: 473 continuous, 100 integer (100 binary)

Root relaxation: objective 7.719958e+02, 225 iterations, 0.00 seconds (0.00 work units)

    Nodes    |    Current Node    |     Objective Bounds      |     Work
 Expl Unexpl |  Obj  Depth IntInf | Incumbent    BestBd   Gap | It/Node Time

     0     0  771.99579    0    1          -  771.99579      -     -    0s
     0     0 17228.5422    0   30          - 17228.5422      -     -    0s
     0     0 31039.8764    0   15          - 31039.8764      -     -    0s
     0     0 31041.6043    0   15          - 31041.6043      -     -    0s
     0     0 31047.5785    0    3          - 31047.5785      -     -    0s
     0     0 31047.5928    0    3          - 31047.5928      -     -    0s
     0     0 31047.5928    0    3          - 31047.5928      -     -    0s
H    0     0                    31050.398300 31047.5928  0.01%     -    0s

Cutting planes:
  Gomory: 4
  Implied bound: 20
  MIR: 8
  Flow cover: 38
  RLT: 1

Explored 1 nodes (606 simplex iterations) in 0.10 seconds (0.07 work units)
Thread count was 4 (of 128 available processors)

Solution count 1: 31050.4 

Optimal solution found (tolerance 1.00e-03)
Best objective 3.105039829997e+04, best bound 3.104759283640e+04, gap 0.0090%

Gurobi 11.0.3 (linux64) logging started Mon Aug 25 12:53:39 2025

Set parameter LogFile to value "/home/yihong/Coding/OR_SUC/SUC_epstheta_results_bigM100000_thread4/case24_ieee_rts_theta0.1_epsilon0.2_gurobi_seed40000_num_gen100_N_WDR50_load_scaling_factor1_ori_eps_T1quadra_cost_bc1.03.txt"
Set parameter TimeLimit to value 3600
Gurobi Optimizer version 11.0.3 build v11.0.3rc0 (linux64 - "Ubuntu 20.04.6 LTS")

CPU model: AMD EPYC 7532 32-Core Processor, instruction set [SSE2|AVX|AVX2]
Thread count: 64 physical cores, 128 logical processors, using up to 4 threads

Academic license 2399124 - for non-commercial use only - registered to yi___@ed.ac.uk
Optimize a model with 5303 rows, 1292 columns and 424551 nonzeros
Model fingerprint: 0x3fd4be58
Model has 101 quadratic constraints
Variable types: 1192 continuous, 100 integer (100 binary)
Coefficient statistics:
  Matrix range     [3e-04, 6e+01]
  QMatrix range    [2e-03, 5e+01]
  QLMatrix range   [5e-01, 6e+01]
  Objective range  [1e+00, 1e+00]
  Bounds range     [2e-01, 1e+00]
  RHS range        [2e-01, 3e+04]
  QRHS range       [5e+00, 5e+00]
Presolve removed 1580 rows and 709 columns
Presolve time: 0.20s
Presolved: 3825 rows, 684 columns, 85338 nonzeros
Presolved model has 100 quadratic constraint(s)
Presolved model has 1 bilinear constraint(s)
Warning: Model contains variables with very large bounds participating
         in product terms.
         Presolve was not able to compute smaller bounds for these variables.
         Consider bounding these variables or reformulating the model.


Solving non-convex MIQCP

Variable types: 584 continuous, 100 integer (100 binary)

Root relaxation: objective 0.000000e+00, 254 iterations, 0.04 seconds (0.08 work units)

    Nodes    |    Current Node    |     Objective Bounds      |     Work
 Expl Unexpl |  Obj  Depth IntInf | Incumbent    BestBd   Gap | It/Node Time

     0     0    0.00000    0    3          -    0.00000      -     -    0s
     0     0    0.00000    0    2          -    0.00000      -     -    0s
     0     0    0.00000    0    1          -    0.00000      -     -    0s
H    0     0                       0.0465295    0.00000   100%     -    4s
H    0     0                       0.0406615    0.00000   100%     -    4s
H    0     0                       0.0406612    0.00000   100%     -    4s
H    0     0                       0.0406612    0.00000   100%     -    4s
     0     0    0.03910    0    4    0.04066    0.03910  3.83%     -    4s
     0     0    0.03917    0    4    0.04066    0.03917  3.66%     -    4s
     0     0    0.03917    0    4    0.04066    0.03917  3.66%     -    4s
     0     0    0.03974    0    4    0.04066    0.03974  2.27%     -    4s
     0     0    0.03976    0    4    0.04066    0.03976  2.22%     -    4s
     0     0    0.03976    0    4    0.04066    0.03976  2.22%     -    4s
     0     0    0.04004    0    2    0.04066    0.04004  1.53%     -    4s
     0     0    0.04004    0    4    0.04066    0.04004  1.53%     -    4s
     0     0    0.04004    0    2    0.04066    0.04004  1.53%     -    4s
H    0     0                       0.0403116    0.04005  0.64%     -    4s
H    0     0                       0.0403018    0.04005  0.61%     -    4s
     0     0    0.04029    0    2    0.04030    0.04029  0.03%     -    4s

Cutting planes:
  Implied bound: 4
  Flow cover: 1

Explored 1 nodes (927 simplex iterations) in 4.57 seconds (4.25 work units)
Thread count was 4 (of 128 available processors)

Solution count 6: 0.0403018 0.0403116 0.0406612 ... 0.0465295

Optimal solution found (tolerance 1.00e-03)
Best objective 4.030177708025e-02, best bound 4.029049741510e-02, gap 0.0280%
